c NeuroCodeBench 2.0 CNF formula with verdict Unsat
p cnf 35 81
1 -20 2 14 -29 7 35 12 -9 0
1 -20 2 14 29 16 11 12 0
-1 -14 15 -25 -17 10 0
-1 14 24 -35 19 0
1 20 32 34 2 0
1 -20 -2 4 -14 -24 17 -19 0
-1 14 -24 0
1 -20 -2 4 14 -10 -21 28 0
1 -20 2 -14 -30 11 27 34 0
1 -20 -2 -4 16 -13 19 0
1 -20 2 14 -29 7 -35 0
-1 14 24 35 31 15 -7 0
-1 14 24 35 31 -15 0
1 -20 2 -14 -30 11 -27 4 7 0
-1 -14 15 -25 17 -20 0
-1 -14 15 25 -3 6 19 0
1 20 32 34 -2 12 0
-1 14 24 35 -31 -34 0
1 -20 2 -14 30 34 16 -33 0
-1 -14 -15 -30 6 -26 -19 0
1 -20 -2 4 -14 24 -28 -25 0
1 -20 2 14 -29 -7 -11 0
1 -20 2 14 -29 7 35 12 9 0
1 -20 2 14 -29 7 35 -12 0
1 -20 2 -14 -30 11 -27 4 -7 0
1 -20 2 -14 30 34 16 33 0
-1 -14 15 25 3 -33 7 0
-1 14 24 35 -31 34 8 0
1 -20 -2 -4 -16 24 -3 11 12 0
-1 -14 -15 -30 -6 0
1 -20 2 -14 -30 -11 15 0
1 -20 -2 4 -14 24 -28 25 0
1 -20 -2 4 14 -10 -21 -28 0
-1 14 24 35 -31 34 -8 0
-1 -14 -15 -30 6 26 -28 -10 -35 0
1 -20 2 14 29 -16 0
1 -20 -2 4 -14 -24 17 19 0
1 -20 2 14 29 16 -11 0
1 -20 2 14 29 16 11 -12 0
-1 -14 15 25 3 -33 -7 0
1 -20 -2 -4 16 13 5 0
1 -20 -2 -4 -16 24 3 8 -12 30 0
-1 -14 -15 30 -4 -5 0
1 -20 2 -14 -30 11 -27 -4 0
1 -20 -2 -4 -16 24 3 -8 0
1 -20 2 -14 -30 -11 -15 0
1 -20 -2 4 -14 24 28 0
-1 -14 15 25 3 33 0
-1 -14 -15 -30 6 -26 19 0
-1 -14 15 -25 17 20 0
-1 -14 -15 -30 6 26 28 -25 0
-1 14 24 -35 -19 0
-1 -14 -15 30 4 26 0
1 -20 -2 4 14 10 0
1 -20 -2 -4 -16 -24 0
1 20 32 34 -2 -12 0
1 20 -32 -16 0
1 -20 -2 -4 16 -13 -19 0
1 -20 -2 4 -14 -24 -17 0
1 -20 2 14 -29 -7 11 0
1 -20 -2 -4 -16 24 3 8 -12 -30 0
1 -20 2 -14 30 34 -16 0
1 -20 -2 4 14 -10 21 0
-1 -14 15 25 -3 -6 0
1 -20 -2 -4 -16 24 3 8 12 0
1 -20 -2 -4 -16 24 -3 -11 0
-1 -14 -15 -30 6 26 28 25 0
-1 -14 -15 30 4 -26 -11 0
-1 -14 15 25 -3 6 -19 0
1 20 -32 16 0
1 -20 -2 -4 -16 24 -3 11 -12 0
1 -20 2 -14 30 -34 0
1 -20 -2 -4 16 13 -5 0
-1 -14 -15 -30 6 26 -28 10 0
1 -20 2 -14 -30 11 27 -34 0
1 20 32 -34 0
-1 -14 15 -25 -17 -10 0
-1 -14 -15 -30 6 26 -28 -10 35 0
-1 14 24 35 31 15 7 0
-1 -14 -15 30 4 -26 11 0
-1 -14 -15 30 -4 5 0
